c nIsolatedPIs 16
c maxPI 16
p cnf 45 88
c gate 17 2 10 0
2 -17 0
10 -17 0
-2 -10 17 0
c gate 18 1 9 0
1 -18 0
9 -18 0
-1 -9 18 0
c gate 19 -17 -18 0
-17 -19 0
-18 -19 0
17 18 19 0
c gate 20 -3 -11 0
-3 -20 0
-11 -20 0
3 11 20 0
c gate 21 -2 -10 0
-2 -21 0
-10 -21 0
2 10 21 0
c gate 22 -20 -21 0
-20 -22 0
-21 -22 0
20 21 22 0
c gate 23 -19 22 0
-19 -23 0
22 -23 0
19 -22 23 0
c gate 24 3 11 0
3 -24 0
11 -24 0
-3 -11 24 0
c gate 25 4 12 0
4 -25 0
12 -25 0
-4 -12 25 0
c gate 26 -24 -25 0
-24 -26 0
-25 -26 0
24 25 26 0
c gate 27 -23 26 0
-23 -27 0
26 -27 0
23 -26 27 0
c gate 28 5 13 0
5 -28 0
13 -28 0
-5 -13 28 0
c gate 29 6 14 0
6 -29 0
14 -29 0
-6 -14 29 0
c gate 30 -28 -29 0
-28 -30 0
-29 -30 0
28 29 30 0
c gate 31 -4 -12 0
-4 -31 0
-12 -31 0
4 12 31 0
c gate 32 -6 -14 0
-6 -32 0
-14 -32 0
6 14 32 0
c gate 33 -5 -13 0
-5 -33 0
-13 -33 0
5 13 33 0
c gate 34 -32 -33 0
-32 -34 0
-33 -34 0
32 33 34 0
c gate 35 -31 34 0
-31 -35 0
34 -35 0
31 -34 35 0
c gate 36 30 35 0
30 -36 0
35 -36 0
-30 -35 36 0
c gate 37 -27 36 0
-27 -37 0
36 -37 0
27 -36 37 0
c gate 38 7 15 0
7 -38 0
15 -38 0
-7 -15 38 0
c gate 39 8 16 0
8 -39 0
16 -39 0
-8 -16 39 0
c gate 40 -38 -39 0
-38 -40 0
-39 -40 0
38 39 40 0
c gate 41 -8 -16 0
-8 -41 0
-16 -41 0
8 16 41 0
c gate 42 -7 -15 0
-7 -42 0
-15 -42 0
7 15 42 0
c gate 43 -41 -42 0
-41 -43 0
-42 -43 0
41 42 43 0
c gate 44 40 43 0
40 -44 0
43 -44 0
-40 -43 44 0
c gate 45 37 44 0
37 -45 0
44 -45 0
-37 -44 45 0
c PO
45 0
